p wcnf 17 68 834
834 1 2 0
834 1 5 0
834 1 6 0
834 1 7 0
834 1 16 0
834 1 17 0
834 2 4 0
834 2 8 0
834 2 9 0
834 2 11 0
834 2 13 0
834 2 16 0
834 3 4 0
834 3 6 0
834 3 10 0
834 3 15 0
834 3 16 0
834 3 17 0
834 4 6 0
834 4 9 0
834 4 12 0
834 4 14 0
834 5 6 0
834 5 9 0
834 5 10 0
834 5 13 0
834 5 15 0
834 5 16 0
834 5 17 0
834 6 7 0
834 6 9 0
834 6 12 0
834 7 13 0
834 7 16 0
834 8 10 0
834 8 12 0
834 8 14 0
834 8 15 0
834 8 16 0
834 9 17 0
834 10 11 0
834 10 12 0
834 10 14 0
834 10 16 0
834 10 17 0
834 11 13 0
834 11 14 0
834 12 13 0
834 12 16 0
834 14 17 0
834 15 16 0
45 -1 0
44 -2 0
45 -3 0
45 -4 0
43 -5 0
44 -6 0
47 -7 0
45 -8 0
46 -9 0
43 -10 0
47 -11 0
45 -12 0
46 -13 0
46 -14 0
47 -15 0
42 -16 0
45 -17 0
